SCIP Status        : solving was interrupted [time limit reached]
Total Time         :    3600.01
  solving          :    3600.01
  presolving       :       0.01 (included in solving)
  reading          :       0.00
  copying          :       0.02 (8 #copies) (minimal 0.00, maximal 0.00, average 0.00)
Original Problem   :
  Problem name     : batch0812_nc
  Variables        : 77 (36 binary, 0 integer, 0 implicit integer, 41 continuous)
  Constraints      : 206 initial, 206 maximal
  Objective        : minimize, 1 non-zeros (abs.min = 1, abs.max = 1)
Presolved Problem  :
  Problem name     : t_batch0812_nc
  Variables        : 104 (15 binary, 0 integer, 4 implicit integer, 85 continuous)
  Constraints      : 90 initial, 90 maximal
  Objective        : minimize, 1 non-zeros (abs.min = 1, abs.max = 1)
  Nonzeros         : 286 constraint, 14 clique table
Presolvers         :   ExecTime  SetupTime  Calls  FixedVars   AggrVars   ChgTypes  ChgBounds   AddHoles    DelCons    AddCons   ChgSides   ChgCoefs
  boundshift       :       0.00       0.00      0          0          0          0          0          0          0          0          0          0
  convertinttobin  :       0.00       0.00      0          0          0          0          0          0          0          0          0          0
  domcol           :       0.00       0.00      3          0          0          0          0          0          0          0          0          0
  dualagg          :       0.00       0.00      0          0          0          0          0          0          0          0          0          0
  dualcomp         :       0.00       0.00      3          0          0          0          0          0          0          0          0          0
  dualinfer        :       0.00       0.00      0          0          0          0          0          0          0          0          0          0
  dualsparsify     :       0.00       0.00      1          0          0          0          0          0          0          0          0          0
  gateextraction   :       0.00       0.00      0          0          0          0          0          0          0          0          0          0
  implics          :       0.00       0.00      5          0          0          0          0          0          0          0          0          0
  inttobinary      :       0.00       0.00      0          0          0          0          0          0          0          0          0          0
  qpkktref         :       0.00       0.00      0          0          0          0          0          0          0          0          0          0
  redvub           :       0.00       0.00      0          0          0          0          0          0          0          0          0          0
  sparsify         :       0.00       0.00      1          0          0          0          0          0          0          0          0          0
  stuffing         :       0.00       0.00      0          0          0          0          0          0          0          0          0          0
  trivial          :       0.00       0.00     12          7          0          0          0          0          0          0          0          0
  tworowbnd        :       0.00       0.00      0          0          0          0          0          0          0          0          0          0
  dualfix          :       0.00       0.00     12         61          0          0          0          0          0          0          0          0
  genvbounds       :       0.00       0.00      4          0          0          0          0          0          0          0          0          0
  probing          :       0.00       0.00      2          0         15          0          2          0          0          0          0          0
  pseudoobj        :       0.00       0.00      1          0          0          0          0          0          0          0          0          0
  symmetry         :       0.00       0.00      1          0          0          0          0          0          0          0          0          0
  vbounds          :       0.00       0.00      3          0          0          0          0          0          0          0          0          0
  varbound         :       0.00       0.00     11          0          0          0          0          0          2          0          0          0
  linear           :       0.00       0.00     17          6          1          0         65          0         71         16          0          0
  logicor          :       0.00       0.00      3          0          0          0          0          0          0          0          0          0
  nonlinear        :       0.01       0.00     20          0          0          0         37          0         72        -16          0          0
  benders          :       0.00       0.00      0          0          0          0          0          0          0          0          0          0
  components       :       0.00       0.00      2          0          0          0          0          0          0          0          0          0
  root node        :          -          -      -          9          -          -        264          -          -          -          -          -
Constraints        :     Number  MaxNumber  #Separate #Propagate    #EnfoLP    #EnfoRelax  #EnfoPS    #Check   #ResProp    Cutoffs    DomReds       Cuts    Applied      Conss   Children
  benderslp        :          0          0          0          0     152136          0          0        361          0          0          0          0          0          0          0
  integral         :          0          0          0          0     152136          0          0        361          0          0         11          0          0          0         14
  varbound         :          8          8         74        818          0          0          0          0          0          1          8          0          0          0          0
  linear           :         58         58         74       2876          0          0          0        354          0         12       2192          0          0          0          0
  logicor          :          1          1         45         62          0          0          0          0          0          0          0          0          0          0          0
  nonlinear        :         23         23     152779       2864     152126          0          0        303          0         96       9183     152688     152619          0       1472
  benders          :          0          0          0          0          0          0          0          5          0          0          0          0          0          0          0
  countsols        :          0          0          0          0          0          0          0          5          0          0          0          0          0          0          0
  components       :          0          0          0          0          0          0          0          0          0          0          0          0          0          0          0
Constraint Timings :  TotalTime  SetupTime   Separate  Propagate     EnfoLP     EnfoPS     EnfoRelax   Check    ResProp    SB-Prop
  benderslp        :       0.06       0.00       0.00       0.00       0.06       0.00       0.00       0.00       0.00       0.00
  integral         :       0.06       0.00       0.00       0.00       0.06       0.00       0.00       0.00       0.00       0.00
  varbound         :       0.00       0.00       0.00       0.00       0.00       0.00       0.00       0.00       0.00       0.00
  linear           :       0.01       0.00       0.00       0.01       0.00       0.00       0.00       0.00       0.00       0.00
  logicor          :       0.00       0.00       0.00       0.00       0.00       0.00       0.00       0.00       0.00       0.00
  nonlinear        :      24.75       0.00      11.09       0.07      13.59       0.00       0.00       0.00       0.00       0.00
  benders          :       0.00       0.00       0.00       0.00       0.00       0.00       0.00       0.00       0.00       0.00
  countsols        :       0.00       0.00       0.00       0.00       0.00       0.00       0.00       0.00       0.00       0.00
  components       :       0.00       0.00       0.00       0.00       0.00       0.00       0.00       0.00       0.00       0.00
Propagators        : #Propagate   #ResProp    Cutoffs    DomReds
  dualfix          :         14          0          0          0
  genvbounds       :        541          0          1        113
  nlobbt           :          0          0          0          0
  obbt             :          7          0          0         39
  probing          :          0          0          0          0
  pseudoobj        :     154256          0          0         17
  redcost          :        142          0          0         15
  rootredcost      :          1          0          0          4
  symmetry         :          0          0          0          0
  vbounds          :        443          0          0          0
Propagator Timings :  TotalTime  SetupTime   Presolve  Propagate    ResProp    SB-Prop
  dualfix          :       0.00       0.00       0.00       0.00       0.00       0.00
  genvbounds       :       0.25       0.00       0.00       0.25       0.00       0.00
  nlobbt           :       0.00       0.00       0.00       0.00       0.00       0.00
  obbt             :       0.04       0.00       0.00       0.04       0.00       0.00
  probing          :       0.00       0.00       0.00       0.00       0.00       0.00
  pseudoobj        :       0.22       0.00       0.00       0.22       0.00       0.00
  redcost          :       0.14       0.00       0.00       0.14       0.00       0.00
  rootredcost      :       0.08       0.00       0.00       0.08       0.00       0.00
  symmetry         :       0.00       0.00       0.00       0.00       0.00       0.00
  vbounds          :       0.12       0.00       0.00       0.12       0.00       0.00
Conflict Analysis  :       Time      Calls    Success    DomReds  Conflicts   Literals    Reconvs ReconvLits   Dualrays   Nonzeros   LP Iters   (pool size: [--,--])
  propagation      :       0.00          2          0          -          0        0.0          0        0.0          -          -          -
  infeasible LP    :       0.00         51         33          -          0        0.0          0        0.0         33        8.7          0
  bound exceed. LP :       0.00          4          0          -          0        0.0          0        0.0          0        0.0          0
  strong branching :       0.00          0          0          -          0        0.0          0        0.0          -          -          0
  pseudo solution  :       0.00          0          0          -          0        0.0          0        0.0          -          -          -
  applied globally :       0.00          -          -          0          0        0.0          -          -          0          -          -
  applied locally  :          -          -          -          0          0        0.0          -          -         33          -          -
Separators         :   ExecTime  SetupTime      Calls  RootCalls    Cutoffs    DomReds  FoundCuts ViaPoolAdd  DirectAdd    Applied ViaPoolApp  DirectApp      Conss
  cut pool         :       0.00          -        305        149          -          -        437        587          -          -          -          -          -    (maximal pool size:        219)
  aggregation      :       0.12       0.00         74         74          0          0        279        328          0         67         67          0          0
  > cmir           :          -          -          -          -          -          -          -        312          0         62         62          0          -
  > flowcover      :          -          -          -          -          -          -          -         11          0          1          1          0          -
  > knapsackcover  :          -          -          -          -          -          -          -          5          0          4          4          0          -
  cgmip            :       0.00       0.00          0          0          0          0          0          0          0          0          0          0          0
  clique           :       0.00       0.00         74         74          0          0          1          1          0          0          0          0          0
  closecuts        :       0.00       0.00          0          0          0          0          0          0          0          0          0          0          0
  convexproj       :       0.00       0.00          0          0          0          0          0          0          0          0          0          0          0
  disjunctive      :       0.00       0.00          0          0          0          0          0          0          0          0          0          0          0
  eccuts           :       0.00       0.00          0          0          0          0          0          0          0          0          0          0          0
  gauge            :       0.00       0.00          0          0          0          0          0          0          0          0          0          0          0
  gomory           :       0.00       0.00         20         20          0          0         90        224          0         15         15          0          0
  > gomorymi       :          -          -          -          -          -          -          -        224          0         15         15          0          -
  > strongcg       :          -          -          -          -          -          -          -          0          0          0          0          0          -
  impliedbounds    :       0.00       0.00         74         74          0          0         51         27          0         11         11          0          0
  interminor       :       0.00       0.00          0          0          0          0          0          0          0          0          0          0          0
  intobj           :       0.00       0.00          0          0          0          0          0          0          0          0          0          0          0
  mcf              :       0.00       0.00          2          2          0          0          0          0          0          0          0          0          0
  minor            :       0.00       0.00          0          0          0          0          0          0          0          0          0          0          0
  mixing           :       0.00       0.00         95         74          0          0         13          5          0          0          0          0          0
  oddcycle         :       0.00       0.00          0          0          0          0          0          0          0          0          0          0          0
  rapidlearning    :       0.00       0.00          0          0          0          0          0          0          0          0          0          0          0
  rlt              :       0.00       0.00         20         20          0          0          0          0          0          0          0          0          0
  zerohalf         :       0.00       0.00         40         40          0          0          3          2          0          2          2          0          0
Cutselectors       :   ExecTime  SetupTime      Calls  RootCalls   Selected     Forced   Filtered  RootSelec   RootForc   RootFilt 
  hybrid           :       0.00       0.00        649         72       1243          1        561        234          1        557
Pricers            :   ExecTime  SetupTime      Calls       Vars
  problem variables:       0.00          -          0          0
Branching Rules    :   ExecTime  SetupTime   BranchLP  BranchExt   BranchPS    Cutoffs    DomReds       Cuts      Conss   Children
  allfullstrong    :       0.00       0.00          0          0          0          0          0          0          0          0
  cloud            :       0.00       0.00          0          0          0          0          0          0          0          0
  distribution     :       0.00       0.00          0          0          0          0          0          0          0          0
  fullstrong       :       0.00       0.00          0          0          0          0          0          0          0          0
  inference        :       0.00       0.00          0          0          0          0          0          0          0          0
  leastinf         :       0.00       0.00          0          0          0          0          0          0          0          0
  lookahead        :       0.00       0.00          0          0          0          0          0          0          0          0
  mostinf          :       0.00       0.00          0          0          0          0          0          0          0          0
  multaggr         :       0.00       0.00          0          0          0          0          0          0          0          0
  nodereopt        :       0.00       0.00          0          0          0          0          0          0          0          0
  pscost           :       0.00       0.00          0          0          0          0          0          0          0          0
  random           :       0.00       0.00          0          0          0          0          0          0          0          0
  relpscost        :       0.01       0.00         10          0          0          0         11          0          0         14
  vanillafullstrong:       0.00       0.00          0          0          0          0          0          0          0          0
Primal Heuristics  :   ExecTime  SetupTime      Calls      Found       Best
  LP solutions     :       0.00          -          -          0          0
  relax solutions  :       0.00          -          -          0          0
  pseudo solutions :       0.00          -          -          0          0
  strong branching :       0.00          -          -          0          0
  actconsdiving    :       0.00       0.00          0          0          0
  adaptivediving   :       0.00       0.00         23          0          0
  alns             :       0.09       0.00          1          0          0
  bound            :       0.00       0.00          0          0          0
  clique           :       0.00       0.00          1          0          0
  coefdiving       :       0.00       0.00          0          0          0
  completesol      :       0.00       0.00          0          0          0
  conflictdiving   :       0.00       0.00          0          0          0
  crossover        :       0.14       0.00          1          0          0
  dins             :       0.00       0.00          0          0          0
  distributiondivin:       0.00       0.00          0          0          0
  dps              :       0.00       0.00          0          0          0
  dualval          :       0.00       0.00          0          0          0
  farkasdiving     :       0.00       0.00          0          0          0
  feaspump         :       0.00       0.00          1          0          0
  fixandinfer      :       0.00       0.00          0          0          0
  fracdiving       :       0.00       0.00         31          0          0
  gins             :       0.00       0.00          0          0          0
  guideddiving     :       0.00       0.00         31          0          0
  indicator        :       0.07       0.00          0          0          0
  indicatordiving  :       0.00       0.00          0          0          0
  intdiving        :       0.00       0.00          0          0          0
  intshifting      :       0.00       0.00          1          0          0
  linesearchdiving :       0.00       0.00         31          0          0
  localbranching   :       0.00       0.00          0          0          0
  locks            :       0.00       0.00          1          0          0
  lpface           :       0.00       0.00          0          0          0
  mpec             :       0.00       0.00          0          0          0
  multistart       :       0.00       0.00          0          0          0
  mutation         :       0.00       0.00          0          0          0
  nlpdiving        :       0.00       0.00          0          0          0
  objpscostdiving  :       0.00       0.00          0          0          0
  octane           :       0.00       0.00          0          0          0
  ofins            :       0.00       0.00          0          0          0
  oneopt           :       0.12       0.00          2          0          0
  padm             :       0.00       0.00          0          0          0
  proximity        :       0.00       0.00          0          0          0
  pscostdiving     :       0.00       0.00          1          0          0
  randrounding     :       0.04       0.00         79          0          0
  rens             :       0.43       0.00          1          1          1
  reoptsols        :       0.00       0.00          0          0          0
  repair           :       0.00       0.00          0          0          0
  rins             :       0.22       0.00          4          0          0
  rootsoldiving    :       0.00       0.00          0          0          0
  rounding         :       0.05       0.00         96          0          0
  shiftandpropagate:       0.00       0.00          1          0          0
  shifting         :       0.01       0.00         79          0          0
  simplerounding   :       0.06       0.00          0          0          0
  subnlp           :       0.17       0.00          2          0          0
  trivial          :       0.00       0.00          2          0          0
  trivialnegation  :       0.00       0.00          0          0          0
  trustregion      :       0.00       0.00          0          0          0
  trysol           :       0.02       0.00          0          0          0
  twoopt           :       0.00       0.00          0          0          0
  undercover       :       0.04       0.00          1          2          2
  vbounds          :       0.00       0.00          0          0          0
  veclendiving     :       0.00       0.00         30          0          0
  zeroobj          :       0.00       0.00          0          0          0
  zirounding       :       0.00       0.00          8          0          0
  other solutions  :          -          -          -          0          -
Expressions        :   #IntEval  IntEvalTi   #RevProp  RevPropTi    DomReds    Cutoffs  #Estimate  EstimTime  Branching  #Simplify SimplifyTi Simplified
  pow              :      35878       0.00       1362       0.00       1216          0    1673404       0.31     758180        157       0.00          0
  prod             :      23813       0.00       6256       0.00       3135          2     303217       0.09     302464        322       0.00         68
  sum              :       1802       0.00       1472       0.00       1697          4          4       0.00          0        137       0.00         41
  val              :          0       0.00          0       0.00          0          0          0       0.00          0          0       0.00          0
  var              :      17986       0.00          0       0.00          0          0          0       0.00          0        642       0.00         28
Nlhdlrs            :    Detects  DetectAll DetectTime   #IntEval  IntEvalTi   #RevProp  RevPropTi    DomReds    Cutoffs   #Enforce   EnfoTime       Cuts  Branching
  soc              :         15         27       0.00          0       0.00          0       0.00          0          0        110       0.00         54          0
  convex           :          0          0       0.00          0       0.00          0       0.00          0          0          0       0.00          0          0
  concave          :          0          0       0.00          0       0.00          0       0.00          0          0          0       0.00          0          0
  signomial        :         15         31       0.00          0       0.00          0       0.00          0          0    2729746       1.60         22          0
  quotient         :          6         12       0.00          0       0.00          0       0.00          0          0     756797       0.88        247          0
  quadratic        :         16        193       0.00       9193       0.01       2705       0.01        482          0          0       0.00          0          0
  default          :         79       1948       0.00      60743       0.01       9350       0.01       6048          8    1976619       3.09     152364          0
  bilinear         :         16         37       0.00      20176       0.00       5162       0.00          0          0     302926       0.08          1          0
  perspective      :          0          0       0.00          0       0.00          0       0.00          0          0          0       0.00          0          0
LP                 :       Time      Calls Iterations  Iter/call   Iter/sec  Time-0-It Calls-0-It    ItLimit
  primal LP        :       0.01         89          0       0.00       0.00       0.01         89
  dual LP          :    3007.86     152869       3151       2.80       1.05    3007.66     151745
  lex dual LP      :       0.00          0          0       0.00          -
  barrier LP       :       0.00          0          0       0.00          -       0.00          0
  resolve instable :       0.00          0          0       0.00          -
  diving/probing LP:       0.04        140       2130      15.21   52717.55
  strong branching :       0.00         13        269      20.69          -          -          -          0
    (at root node) :          -          8        221      27.62          -
  conflict analysis:       0.00          0          0       0.00          -
NLP relaxation     :
  solve time       :       0.00 (0 calls)
  convexity        :  nonconvex (29 linear rows, 0 convex ineq., 23 nonconvex ineq., 0 nonlinear eq. or two-sided ineq.)
NLP Solvers        :  #Problems  ProblemTi    #Solves  SolveTime      #Iter  Time/Iter      #Okay #TimeLimit #IterLimit #LObjLimit #Interrupt  #NumError #EvalError  #OutOfMem #LicenseEr #OtherTerm   #GlobOpt    #LocOpt  #Feasible #LocInfeas #GlobInfea #Unbounded   #Unknown
  ipopt            :          3       0.00          1       0.02         20       0.00          1          0          0          0          0          0          0          0          0          0          0          1          0          0          0          0          0
B&B Tree           :
  number of runs   :          2
  nodes            :        869 (743 internal, 126 leaves)
  feasible leaves  :          0
  infeas. leaves   :        122
  objective leaves :          3
  nodes (total)    :        870 (743 internal, 127 leaves)
  nodes left       :        619
  max depth        :         41
  max depth (total):         41
  backtracks       :         50 (5.8%)
  early backtracks :          0 (0.0%)
  nodes exc. ref.  :          0 (0.0%)
  delayed cutoffs  :          0
  repropagations   :          3 (0 domain reductions, 0 cutoffs)
  avg switch length:       2.43
  switching time   :       0.02
Root Node          :
  First LP value   : +2.34234489263344e+06
  First LP Iters   :        104 (14933.95 Iter/sec)
  First LP Time    :       0.01
  Final Dual Bound : +2.67148007590579e+06
  Final Root Iters :        991
  Root LP Estimate : +2.67855612520471e+06
Solution           :
  Solutions found  :          3 (3 improvements)
  First Solution   : +2.85922146581058e+06   (in run 1, after 1 nodes, 0.07 seconds, depth 0, found by <undercover>)
  Gap First Sol.   :      22.07 %
  Gap Last Sol.    :       1.92 %
  Primal Bound     : +2.70756215786650e+06   (in run 1, after 1 nodes, 0.61 seconds, depth 0, found by <rens>)
  Dual Bound       : +2.68694987945763e+06
  Gap              :       0.77 %
Integrals          :      Total       Avg%
  primal-dual      :    2751.27       0.76
  primal-ref       :          -          - (not evaluated)
  dual-ref         :          -          - (not evaluated)
